# Solution for model r10_t36_m1_0 Batch Number: 2
# Finished Task: 36 / 36
# Makespan: 856.0, Total Distance: 387.0, Total Time: 9.0153
# R O S F Batch
0 0 35 0.0 0.0 -1
1 1 22 0.0 0.0 -1
2 2 15 0.0 0.0 -1
3 3 25 0.0 0.0 -1
4 4 17 0.0 0.0 -1
5 5 39 0.0 0.0 -1
6 6 10 0.0 0.0 -1
7 7 36 0.0 0.0 -1
8 8 26 0.0 0.0 -1
9 9 18 0.0 0.0 -1
10 6 14 59.0 94.0 0
11 3 30 665.0 690.0 1
12 4 -1 421.0 442.0 0
13 2 21 393.0 416.0 0
14 6 -1 444.0 475.0 0
15 2 13 342.0 376.0 0
16 8 31 743.0 770.0 0
17 4 12 374.0 409.0 0
18 9 41 251.0 289.0 0
19 2 28 603.0 628.0 0
20 0 -1 522.0 556.0 0
21 2 19 424.0 446.0 0
22 1 34 536.0 564.0 0
23 7 -1 564.0 601.0 1
24 1 -1 794.0 822.0 1
25 3 33 576.0 611.0 0
26 8 27 327.0 348.0 0
27 8 16 717.0 743.0 0
28 2 40 641.0 668.0 0
29 7 23 520.0 547.0 1
30 3 42 698.0 722.0 1
31 8 45 778.0 807.0 1
32 3 11 643.0 665.0 1
33 3 32 620.0 643.0 1
34 1 37 580.0 603.0 0
35 0 20 480.0 510.0 0
36 7 43 395.0 420.0 0
37 1 24 750.0 770.0 0
38 2 -1 817.0 840.0 1
39 5 -1 549.0 571.0 1
40 2 38 776.0 805.0 1
41 9 44 781.0 811.0 1
42 3 -1 732.0 761.0 1
43 7 29 469.0 505.0 1
44 9 -1 825.0 856.0 1
45 8 -1 820.0 856.0 1
